db/inputs/21717533123758376107101969929614511.smt2
(set-logic QF_FP)
(declare-const x0 (_ FloatingPoint 8 24))
(declare-const x1 (_ FloatingPoint 8 24))
(declare-const x2 (_ FloatingPoint 8 24))
(assert (fp.geq (fp.neg (fp.mul RNE (fp.neg (fp.mul RNE x0 x1)) (fp.div RNE (fp.sub RNE x0 x0) (fp.neg x0)))) (fp.div RNE (fp.neg (fp.mul RNE (fp.add RNE x0 x1) (fp.mul RNE x1 x0))) (fp.div RNE (fp.mul RNE (fp.neg x0) (fp.sub RNE x2 x2)) (fp.div RNE (fp.mul RNE x2 x2) (fp.mul RNE x0 x2))))))
(assert (fp.eq (fp.neg (fp.add RNE (fp.add RNE (fp.div RNE x0 x0) (fp.mul RNE x1 x1)) (fp.mul RNE (fp.add RNE x1 x1) (fp.sub RNE x1 x1)))) (fp.sub RNE (fp.mul RNE (fp.neg (fp.sub RNE x1 x1)) (fp.neg (fp.neg x0))) (fp.mul RNE (fp.neg (fp.add RNE x2 x0)) (fp.mul RNE (fp.sub RNE x2 x2) (fp.div RNE x1 x1))))))
(check-sat)
