db/data/21717533123758376107101969929614511.z3.out
unsat
-------------------
69.871501080
